(set-logic QF_S)
(declare-fun _var_0xINPUT_77348_() String)
(declare-fun __woorpje_diseq_pref0_() String)
(declare-fun __woorpje_diseq_suf_l0_() String)
(declare-fun __woorpje_diseq_suf_r0_() String)
(declare-fun __woorpje_diseq_pref1_() String)
(declare-fun __woorpje_diseq_suf_l1_() String)
(declare-fun __woorpje_diseq_suf_r1_() String)
(assert (=(str.++  "CQALcCP5TB" "")(str.++ __woorpje_diseq_pref0_  "C" __woorpje_diseq_suf_l0_  "")) )
(assert (=(str.++ _var_0xINPUT_77348_  "")(str.++ __woorpje_diseq_pref0_  "A" __woorpje_diseq_suf_r0_  "")) )
(assert (=(str.++ _var_0xINPUT_77348_  "")(str.++  "AA1ND6MEXd" "")) )
(check-sat)
